
Gurobi 7.5.2 (linux64) logging started Sat Jun 23 16:25:59 2018

Changed value of parameter LogFile to result/ilp/simNo_4-n_100-m_40-s_7-minVAF_0.05-cov_2000-k_2-fn_0.15-fp_0.0001-na_0.15.ILP.gurobiSolverLog
   Prev: gurobi.log  Default: 
Changed value of parameter TimeLimit to 86400.0
   Prev: 1e+100  Min: 0.0  Max: 1e+100  Default: 1e+100
Optimize a model with 1265601 rows, 330440 columns and 3489120 nonzeros
Variable types: 0 continuous, 330440 integer (330440 binary)
Coefficient statistics:
  Matrix range     [7e-04, 2e+00]
  Objective range  [2e+00, 1e+01]
  Bounds range     [1e+00, 1e+00]
  RHS range        [7e-02, 2e+00]
Found heuristic solution: objective -6176.250016
Presolve removed 379516 rows and 223447 columns (presolve time = 7s) ...
Presolve removed 379516 rows and 223447 columns (presolve time = 10s) ...
Presolve removed 379822 rows and 223447 columns (presolve time = 15s) ...
Presolve removed 379822 rows and 223447 columns (presolve time = 22s) ...
Presolve removed 379822 rows and 223447 columns (presolve time = 25s) ...
Presolve removed 379822 rows and 223447 columns (presolve time = 34s) ...
Presolve removed 379822 rows and 223447 columns (presolve time = 37s) ...
Presolve removed 379822 rows and 223447 columns
Presolve time: 37.47s
Presolved: 885779 rows, 106993 columns, 2462584 nonzeros
Variable types: 0 continuous, 106993 integer (106993 binary)
Presolve removed 0 rows and 0 columns (presolve time = 5s) ...
Presolved: 106993 rows, 992772 columns, 2569577 nonzeros

Presolve removed 106993 rows and 992772 columns

Root simplex log...

Iteration    Objective       Primal Inf.    Dual Inf.      Time
       0    2.1013193e+01   0.000000e+00   4.746700e+04     51s
    6691   -1.1303301e+02   9.000405e-05   0.000000e+00     56s
    6693   -1.1303301e+02   0.000000e+00   0.000000e+00     56s
    6693   -1.1303301e+02   0.000000e+00   0.000000e+00     61s

Root relaxation: objective -1.130330e+02, 6693 iterations, 20.22 seconds
Total elapsed time = 76.92s
Total elapsed time = 85.40s
Total elapsed time = 92.71s

    Nodes    |    Current Node    |     Objective Bounds      |     Work
 Expl Unexpl |  Obj  Depth IntInf | Incumbent    BestBd   Gap | It/Node Time

     0     0 -113.03301    0  247 -6176.2500 -113.03301  98.2%     -  101s
H    0     0                    -132.4193227 -113.03301  14.6%     -  108s
     0     0 -117.62453    0  251 -132.41932 -117.62453  11.2%     -  124s
H    0     0                    -130.3786672 -117.62453  9.78%     -  137s
     0     0 -117.62453    0  251 -130.37867 -117.62453  9.78%     -  145s
     0     0 -121.19563    0  230 -130.37867 -121.19563  7.04%     -  158s
     0     0 -121.41047    0  255 -130.37867 -121.41047  6.88%     -  176s
     0     0 -121.50961    0  255 -130.37867 -121.50961  6.80%     -  188s
     0     0 -122.03573    0  294 -130.37867 -122.03573  6.40%     -  202s
     0     0 -122.03573    0  294 -130.37867 -122.03573  6.40%     -  238s
     0     0 -123.37577    0  275 -130.37867 -123.37577  5.37%     -  272s
     0     0 -123.37577    0  144 -130.37867 -123.37577  5.37%     -  991s
     0     0 -123.37577    0  159 -130.37867 -123.37577  5.37%     -  993s
     0     0 -123.37577    0  172 -130.37867 -123.37577  5.37%     -  995s
     0     0 -123.37577    0  173 -130.37867 -123.37577  5.37%     -  996s
     0     0 -125.33878    0  156 -130.37867 -125.33878  3.87%     -  998s
     0     0 -125.33878    0  117 -130.37867 -125.33878  3.87%     - 1002s
     0     0 -125.33878    0  126 -130.37867 -125.33878  3.87%     - 1003s
     0     0 -125.33878    0  117 -130.37867 -125.33878  3.87%     - 1004s
     0     0 -125.33878    0  131 -130.37867 -125.33878  3.87%     - 1004s
     0     0 -125.33878    0  137 -130.37867 -125.33878  3.87%     - 1004s
     0     0 -125.33878    0  137 -130.37867 -125.33878  3.87%     - 1004s
     0     0 -125.33878    0  104 -130.37867 -125.33878  3.87%     - 1005s
     0     0 -125.33878    0  109 -130.37867 -125.33878  3.87%     - 1005s
     0     0 -125.33878    0  122 -130.37867 -125.33878  3.87%     - 1005s
     0     0 -125.33878    0  123 -130.37867 -125.33878  3.87%     - 1005s
     0     0 -125.33878    0  121 -130.37867 -125.33878  3.87%     - 1005s
     0     0 -125.35618    0  118 -130.37867 -125.35618  3.85%     - 1005s
     0     0 -125.96994    0  119 -130.37867 -125.96994  3.38%     - 1006s
     0     0 -126.00919    0  118 -130.37867 -126.00919  3.35%     - 1006s
     0     0 -126.01939    0  119 -130.37867 -126.01939  3.34%     - 1006s
     0     0 -126.47132    0  120 -130.37867 -126.47132  3.00%     - 1006s
     0     0 -126.50663    0  120 -130.37867 -126.50663  2.97%     - 1006s
     0     0 -126.52407    0  121 -130.37867 -126.52407  2.96%     - 1006s
     0     0 -126.53189    0  121 -130.37867 -126.53189  2.95%     - 1006s
     0     0 -126.54702    0  119 -130.37867 -126.54702  2.94%     - 1006s
     0     0 -126.54702    0  119 -130.37867 -126.54702  2.94%     - 1006s
     0     0 -126.54702    0   38 -130.37867 -126.54702  2.94%     - 1007s
     0     0 -128.67808    0   49 -130.37867 -128.67808  1.30%     - 1007s
     0     0 -129.11823    0   50 -130.37867 -129.11823  0.97%     - 1007s
     0     0 -129.24495    0   51 -130.37867 -129.24495  0.87%     - 1007s
     0     0 -129.26790    0   51 -130.37867 -129.26790  0.85%     - 1007s

Cutting planes:
  Gomory: 2
  Zero half: 16

Explored 1 nodes (21641 simplex iterations) in 1008.18 seconds
Thread count was 1 (of 80 available processors)

Solution count 7: -130.379 -130.379 -130.379 ... -6176.25

Optimal solution found (tolerance 1.00e-04)
Best objective -1.303786672243e+02, best bound -1.303786672243e+02, gap 0.0000%
